k = 10;
b = 5;
AtomicConstraints =  [|
4, 8|
	5, 8|
	5, 9|
	6, 1|
	6, 9|
	7, 1|
	7, 2|];
DisjunctiveConstraints =  [|
4, 3, 4, 5|];
SoftAtomicConstraints =  [|
9, 1|
1, 2|
3, 4|
4, 5|
5, 6|
6, 7|
8, 9|];
DirectSuccessors =  [];